10J3M/DAT/10J3MNLR-15.dat
10 3
29.5828 39.0796
28.3174 38.0526
20.1668 48.1417
21.2294 12.0979
28.2524 12.0679
28.3651 11.0421
26.3523 8.2186
22.3649 16.1347
22.1894 37.023
25.8641 27.1692
83.0091