10J3M/SOL/10J3MNLR-15.sol
solution status: optimal solution found
objective value:                              84.2282
x#1#3                                               1 	(obj:0)
x#2#1                                               1 	(obj:0)
x#3#1                               0.137213685666492 	(obj:0)
x#3#2                               0.249826005461618 	(obj:0)
x#3#3                               0.612960308871891 	(obj:0)
x#4#2                                               1 	(obj:0)
x#5#1                               0.525480705601767 	(obj:0)
x#5#2                               0.474519294398234 	(obj:0)
x#6#1                               0.438336122804349 	(obj:0)
x#6#3                               0.561663877195651 	(obj:0)
x#7#3                                               1 	(obj:0)
x#8#2                                               1 	(obj:0)
x#9#2                                               1 	(obj:0)
x#10#1                                              1 	(obj:0)
z                                             84.2282 	(obj:1)
